 # Version information for this restart file 
 # current date 2014-06-19 15:17:54.943
 # current working dir /fs3/e05/e05/gabriele/cp2k/WATER_BN/water_BN_25_25_highcut/AIMD_run_big/62
 # Program compiled at                              Wed Nov 20 11:12:59 GMT 2013
 # Program compiled on                                                eslogin002
 # Program compiled for                                                   ARCHER
 # Source code revision number                                         svn:13316
 &GLOBAL
   PRINT_LEVEL  LOW
   PROJECT_NAME AIMD_H2O_BN
   RUN_TYPE  MD
   WALLTIME 42840
 &END GLOBAL
 &MOTION
   &GEO_OPT
     OPTIMIZER  BFGS
     MAX_ITER  1000
     STEP_START_VAL  0
   &END GEO_OPT
   &CELL_OPT
     STEP_START_VAL  0
   &END CELL_OPT
   &MD
     ENSEMBLE  NVT
     STEPS  900
     TIMESTEP     9.9999999999999989E-01
     STEP_START_VAL  43020
     TIME_START_VAL     4.3019999999987485E+04
     ECONS_START_VAL    -8.4713970549534715E+03
     TEMPERATURE     3.3000000000000006E+02
     TEMP_KIND  T
     COMVEL_TOL     4.5710289242235791E-12
     &THERMOSTAT
       TYPE  NOSE
       REGION  MASSIVE
       &NOSE
         LENGTH  4
         TIMECON     9.9999999999999989E+02
         MTS  2
         &COORD
               6.9510126405720118E+00   -2.5663050841386736E+00   -1.1259599561973742E+01    1.1505876937350790E+01 \
              -3.4414361943987664E+01    3.4270142157974939E+00   -4.1790419686485665E+00   -5.3418624469635372E+00   -1.3966565397030967E+01 \
               3.6692106696340443E+00   -8.4012811521562512E+00    7.7824905564316165E+00   -4.5598694979948835E+00    1.1113294419453876E+00 \
              -3.4515726422989550E+00    3.2506208668851291E+00   -1.1797925130720744E+01    1.4401015596844839E+00    2.1488722209846323E+00 \
              -3.2759927138869354E+00   -8.7411199226362757E-01    2.5913238501351961E+00    2.7868407338313159E+00   -8.5214400677545541E+00 \
              -2.2300917430056685E+01    2.4082983597595211E+00    4.0541040347577806E-01   -5.7966986995439616E+00    2.1004555801464186E+01 \
               2.8350309920021544E+00   -2.2666427224108165E+00    1.4278556080116893E+00   -2.3881662004125712E+01    2.9639658927330341E+00 \
              -2.8214944418827943E+00   -2.1251610619013874E+00   -1.5045560956070775E+01   -3.2994781781541072E+00   -2.7884559032681899E+00 \
               2.7488279465681007E+00   -1.4238031449758388E+01   -2.5650263375482587E+00   -2.7061102084983291E+00    9.1238189214451204E-01 \
               9.2120012037293559E+00    6.5347501416416587E-01    4.1100448641818765E+00   -8.4247613570960915E+00    3.0144482843502942E+01 \
               8.0908616851682975E+00   -6.8586723230391753E+00    3.1065428309339387E+00   -1.2133428057700449E+01   -2.0931511003632921E+00 \
               2.3298156622682278E+00   -1.4795340978891516E-01   -6.4303639316472081E+00    1.8613881897072644E+00   -3.2611684060347632E+00 \
               3.0433681991907533E+00    3.0780247069329864E+01    6.8376699358902214E-03    5.8511997829609790E+00   -7.9614990366339597E+00 \
               3.0006605459088185E+01   -2.5953947985319550E+00   -1.1378578369739354E+00    2.6366086836467253E+00   -1.8049792626838030E+01 \
               3.7903092139484413E+00   -1.2372161443938120E+01    1.1034124014068672E+01   -2.4842580865256103E+01   -1.4097559943060050E+00 \
               1.7760700636579752E+00   -3.3488673766243973E+00   -8.4395182086684759E+00   -1.3188198399551099E+00   -3.9300135519309163E+00 \
               6.0068959859178115E+00    1.9867974126430500E+01   -8.3386790748449293E+00    3.8733944763279515E+00    1.9868935385932673E-01 \
              -5.3702292902908368E+00   -1.7824223359721545E+00   -4.0405875495092953E+00    2.9423255763563403E+00   -1.2556715735255374E+01 \
              -5.8311262895219560E+00    3.3507598516111896E+00   -4.9127618613019719E-01    1.4488000907348528E+00   -6.0749960313704001E+00 \
              -1.7367509593637400E+00    4.0940970386200188E+00    2.0950672708707799E+01   -3.1693947337449169E+00    9.1376190043480392E+00 \
              -7.8542269241310150E+00   -1.5444153687064416E+01   -1.4209796570858515E+00   -2.3440018505985778E+00    6.2590399908908552E+00 \
              -2.6827152063533513E+00   -3.2913178065604737E-01    9.3604183971196342E+00   -6.9033037712132437E+00    4.2425761850180699E+00 \
               9.3542811610068710E-01   -1.0809946464680884E+01    6.8300743620790874E+00    2.3556674964701863E+01   -9.8220443598966301E-01 \
               3.1592572918912700E+00   -7.7724298161838492E+00    2.9417006574243132E-01    5.8656069575604908E-01    3.2913188906879989E+00 \
              -4.4290558713496191E+00    1.6241462124953774E+00    1.8861243147685030E+00   -1.1405505962533137E+01    7.5711645713304838E+00 \
               1.5749092288033616E+01    5.8654223348550016E-01    2.3062468312830173E+00   -6.9763522745418420E+00   -7.3087333692129155E+00 \
               5.7772601124162462E+00    1.5754233771247881E+00   -1.0925313746649483E+01   -2.7202574174408227E+01   -6.3661057334613291E-01 \
               2.8168769188646889E+00   -3.8003000313738426E+00    1.3226559127290797E+01   -3.1749751496134826E-01    4.8964826776428554E+00 \
              -4.7493002341165766E+00   -7.2388956431512792E+00    3.2163130148778944E+00   -8.1444458903559216E+00    2.8038249063202976E+00 \
              -3.1661884966354936E+01   -3.5720782092341103E+00   -4.1705297946225279E+00    4.2999775310182926E+00    9.8750601297378644E+00 \
              -7.8945517895520876E+00    7.1664609410892277E-01    3.5234075816679065E+00    3.0385474765699215E+01   -5.3489038112533605E+00 \
               2.3729797199586415E+00   -4.3184172478303262E+00    4.1926403228987743E+00   -2.6474283644484164E+00   -8.8302840135498817E-01 \
               1.7903738590935816E+00   -3.9534539478043365E+00   -1.1275405461276142E-01    2.6869272086726399E+00   -2.8437128151804045E+00 \
              -3.4354603701071658E+00   -1.0809164740564377E+01   -5.3979082989123434E-02    6.4526703252208106E+00    2.1310443930269344E+01 \
              -1.8480489769517312E+00    3.6471590947894272E+00   -3.9363120903570588E+00   -3.1191054630411575E+01    2.9120085843020154E+00 \
               5.7060124460664075E-01   -2.8916529847491801E+00    1.0356732571353781E+01   -5.9261019795193937E+00   -4.1140249115350569E+00 \
               4.2625829698087108E+00   -3.2680133310036434E+00   -5.0169640601771723E+00    2.1472695489272436E-01    4.0625230464083808E+00 \
              -2.5819931146918545E+01    3.4049995232111647E+00    4.5388937144912012E+00   -8.2623598409268784E+00    9.2328116821740913E+00 \
               2.8264136880815816E-01    1.9029929726412953E+00   -1.2768181328158077E+00   -1.6373408397421979E+01   -3.8895838151083715E+00 \
               7.4252433122889760E-02    1.5499045127028706E+00   -1.2520698350591839E+01    1.0745051240045331E+00   -7.5661116238866901E+00 \
               5.3146854692358989E+00    1.7292129165920429E+01   -2.0043223047578174E+00   -3.0786069948900630E+00    5.5319037966594351E+00 \
              -1.0742151614822372E+01   -2.2654177893990894E+00    6.9504478619554835E+00   -5.7075213514363989E+00    1.3956376810609026E+01 \
               2.7296876836118118E+00    1.0973542750204798E+01   -1.1263691914976315E+01    3.0941265579621394E+01    6.6567233206403849E+00 \
              -6.9680817051603787E+00    7.2708952799374602E+00    1.5123313552628697E+00    2.6514888673361305E+00    5.6897572025143059E+00 \
              -1.1374528145816829E+01    2.3519614663888106E+01   -1.4477834361074906E+00    3.2270363966543987E+00    6.8221134554661411E-01 \
              -5.9354158074168932E+00   -1.3846408148973433E+01    5.0728942716671099E+00    4.8775970009321465E+00   -1.7585821241446524E+01 \
               3.6737485648518344E+00   -2.9926901028443349E+00    1.5081846456136332E+00    4.4885367721485521E+00   -6.2032427180177390E+00 \
               1.3302246670860654E+01   -9.5314962612994947E+00   -4.2121264165266661E+00   -1.3228348077040131E+00    3.9665125150715990E+00 \
              -4.2616126412307747E+00   -7.3499195076889814E+00    2.5676136636679612E+00    7.8576359992221683E+00   -1.1249034030617109E+01 \
              -2.1085814924471574E+01   -7.8551040509442274E+00   -1.7495081573701459E+00    6.7911241879396966E+00    2.1162214626771739E+01 \
               3.7597571797085627E-01    2.0414926517338512E+00   -2.7815823367935679E+00    4.9242669239732324E+00    5.4034717007219939E+00 \
               4.1136720580879643E-01   -7.8363617458363644E+00    3.3976788162329406E+01   -1.9439052640090411E+00    3.2017884092512747E+00 \
              -3.3412048342080918E+00   -8.9858145386459176E-01   -4.6513236891442693E+00    3.8866061873069113E+00   -7.8698831614954767E-01 \
              -1.3421170644947134E+00    6.8439478564266736E+00   -7.2491835032920218E+00    2.4992322084654353E+00   -1.7278005153081420E+01 \
              -1.7857756780127423E+00    2.4822551396104804E+00   -4.8024873069422744E+00   -1.7250399314030030E+01    5.1282896464504120E+00 \
               2.2087575498701670E+00   -1.0441553885554514E+01   -2.2396818967450322E+01   -1.1702669394084917E+00   -1.1558492317828026E+00 \
               1.0336306417121668E+00   -1.3677632207374396E+01    2.9266393353333067E+00   -3.2759641452685981E+00    2.0721057190493775E+00 \
               1.9290910676993239E+01    8.0177731431117323E+00   -1.8682967294876038E+00   -5.4402459385662612E+00   -8.5161182161098825E+00 \
               1.6449611473622505E+00   -5.4320408490516341E+00    1.9103151712950481E+00    1.4927730326497118E+01    1.3138529222138726E+00 \
               7.2188121007898829E+00   -8.8870051865332655E+00   -3.3158191884436683E+01    2.0369451787056168E+00   -6.8895747584969769E+00 \
               2.7142452210887176E+00   -4.7315657235194286E-01    2.3129154315687952E+00    6.8749228158238411E+00   -1.0002187453713175E+01 \
               9.3751403124712898E+00   -2.4911471886733403E+00    5.6366531692825577E+00   -2.5373788079306965E+00    9.0603242754920625E+00 \
               9.3430510272274525E-01    5.1061337224250458E+00   -7.3709080179400779E+00    4.9431926520261484E+00    1.7993368205286147E+00 \
              -8.3462269210154338E-01   -2.9675932994635540E-01   -8.2737955758981059E+00    3.0456170531082055E-01   -5.4145323598505692E+00 \
               5.2344296866365632E+00   -1.1978946991831039E+01   -6.3691211281276576E+00   -2.3632566911585084E+00    5.3426867263399078E+00 \
              -7.3806318264653408E+00   -7.9034111389092034E+00   -9.5329858947994826E+00    1.2884516594295883E+01   -3.7755584099502810E+00 \
               1.1609321544015931E+00   -4.2739563203698721E+00    1.8691145733604202E+00   -7.3507874065080756E+00    5.7883991091960718E+00 \
              -8.0551316546083989E+00    2.4394956699180610E+00   -1.9631883401256282E+01    6.1009777201618327E+00   -8.9390954549727013E+00 \
               2.5595114145801001E+00    3.5058885275572007E+00    2.1249311397401618E+00    3.0375605160370949E+00   -4.6247313161146764E+00 \
              -1.4554577405837469E+01    7.6667461433398376E+00    8.5067797887807528E-01   -4.1857174727847148E+00   -2.7425286623210958E+01 \
              -4.8685470702935953E+00    1.0967995566525458E+01   -9.2975822776209647E+00    2.8082355381540630E+01    3.4378466583178802E+00 \
              -1.6368182692748565E+00   -3.5605800969399546E+00   -1.4023695419892190E+01    2.8342012242151973E+00   -1.1017166973011412E+00 \
              -3.9220381299171296E+00   -1.9160501653288581E+01    1.5103384715270394E+00   -9.8164589105134912E+00    3.3349449329529097E+00 \
              -2.1626842901535355E+01   -8.2853682276407803E-01    1.8401289069054145E+00   -1.3670395368729873E+00    1.2603018066904150E+01 \
              -5.6457167251817353E+00    4.5317166699603539E-01    2.9795317002470298E+00    1.9040695789615352E+01    3.6418076290646297E+00 \
              -7.3816966970160891E+00    3.2788107408365459E+00   -1.3119094586246364E+01    2.9301832463186814E+00   -9.6159197633009885E+00 \
               5.2385677600788814E+00   -1.6948565037639543E+01    3.4696192271603414E+00   -1.0450248257554570E-02   -3.9120877047364564E+00 \
               2.0234333652650641E+01    4.6425143204633814E+00   -3.6791254294945772E+00   -4.5033455517340499E+00    1.1104792756965777E+01 \
               2.9562392363196497E+00   -6.9521142883468645E-01   -8.5414277958733797E-01   -1.5383509653244809E+01    6.0412217765654676E-02 \
              -1.5554584913829872E+00    5.6498954754634834E-01   -2.4840892558789321E+01    3.4480176591201914E+00   -1.1352639338072766E+01 \
               7.8433914779109752E+00   -1.0476433046394916E-01   -1.1055594432243203E+00   -1.0108767096925547E+01    1.3271747690369153E+01 \
              -6.5436819177719494E+00   -3.0225556034728829E-01   -6.5160205519274439E-01   -5.0806360205230394E+00    2.6787729802550093E+01 \
               1.9895827626970417E+00    2.2465999958714442E-01   -6.4403081555202482E+00    3.4838348032943358E+01    2.8955442522969538E-01 \
              -1.5308588300367874E+00   -1.8497297329340299E+00    1.3246880656151507E+01    2.0525206424910949E+00    7.8523617999209483E-01 \
               1.1219440051476299E+00   -1.3930622152571573E+01   -3.3998477375143139E+00    9.4431994935483505E+00   -7.4751044925242134E+00 \
               3.3742763089019668E+01   -5.7739338471966617E+00    5.3422072108173495E+00   -4.1427493110292701E+00   -2.0802081733917188E-01 \
              -1.6295475332156821E+00   -3.4318899019988085E+00    3.2609529823747856E+00   -1.2355678179766185E+01    9.1292264003591006E-01 \
               3.1250684723117468E+00   -2.9017602280591213E+00    3.2571497842709690E+01   -9.1300478462572188E-01   -1.1483755690872095E+00 \
               1.1153772181600830E-01   -1.5376990595631828E+00   -6.9940080918171414E+00   -1.2735354003706079E+00    2.7271868243947934E+00 \
               2.8271871481915575E+01    2.1121265688319819E+00    8.3415182292466628E-01   -4.5804020741138824E+00    2.2064447458044945E+01 \
              -2.8990726552858037E+00   -8.3336823246095140E+00    7.8386697389091458E+00    2.1003094277449708E+00   -6.2353946383158210E+00 \
               4.1063498264595948E+00   -3.5398426980613791E+00   -3.0591803610678824E+01   -2.0845500972909101E+00   -5.9603987497028377E-01 \
              -2.6542760479175631E+00    6.5885666100511973E+00    9.1612427315952427E-01   -4.6224443956270500E+00    8.1521108762893713E-01 \
               1.3061000306446090E+01    6.5271759670362623E+00   -3.4178924429388924E+00   -2.9985525779422582E+00   -2.2512451828610576E+01 \
              -1.2793752510082221E+00   -1.2720302605452259E+01    1.0348176773529545E+01   -7.2554454243354305E-01   -2.8478275864843411E-01 \
              -5.9545612381847057E+00    4.0432025959602500E+00   -9.5515733998055783E+00    3.0127496576627761E+00   -1.2500168281879160E+00 \
              -3.8547864525933884E+00    3.0161496803548740E+01    2.7290013230358445E+00   -5.5246044318309266E+00    4.1192394214636776E+00 \
               1.7396944268706991E+00   -3.8127998353371545E-01    2.5560372075054723E+00   -4.6012468816563654E+00    1.2329027662280332E+01 \
               3.0509942610989721E-01    1.0631607714544753E+00   -3.0743722503190036E+00    2.7527873487994839E+01   -7.1039972002741592E-01 \
               2.3494930597613969E-01   -6.7274332935098147E-01   -2.4321290030074785E+01    2.6146485532940578E-01    6.2624440364753928E+00 \
              -6.7052345681605177E+00   -1.6974532064447626E+01    4.2000150202710618E+00    4.9068994972971538E+00   -8.7504395003004056E+00 \
              -1.6285553911713027E+01   -4.0585909365700967E+00    6.1792759466356122E+00   -6.2967174582024752E+00   -2.1211835560833702E+01 \
              -1.4056160182442499E+00    4.2364954948068103E+00   -4.6273251888354787E+00   -1.6651772519551564E+01    4.8185178494835581E+00 \
               1.7931807590005242E+00   -9.1393665162938866E+00    1.9315118041024281E+01   -3.9789821029005906E-01    4.4263443925519432E+00 \
              -1.8337582315983274E+00   -7.0633119490901732E+00    1.5308810014086380E+00    1.0594071624838599E+00   -4.4766045719408663E+00 \
              -7.8269595813746626E+00    6.1871903727747926E+00   -6.2260682288009823E+00    6.1333816127758896E+00    8.7301949707588271E+00 \
               4.1058502165238160E+00   -9.3535302327238978E-01   -4.2424820633697147E+00    2.2450506049719184E+01   -2.0288746666982143E-02 \
               4.9592667597392746E+00   -7.1766896878794153E+00   -1.6755856540596188E+01   -7.3943671954406183E+00   -6.8186000766165993E+00 \
               1.0276997732379323E+01   -1.3604109048913408E+01   -5.9295389615410787E+00    9.8471146542256935E+00   -7.4034827417836206E+00 \
              -2.2221723018012440E+01   -2.9802332661630693E-01   -5.9342634322227594E-01   -8.6903808013431239E-01    2.4162618859390093E+01 \
              -4.5020823911409380E+00    7.1921899179855888E+00   -5.8524757669855569E+00    3.0939097861448555E+01    1.5225042772839601E+00 \
               5.3083426996238692E-01   -1.4397487741875687E+00    2.1429657786722750E+01   -1.8730910389502489E-01    5.2047857701495550E+00 \
              -8.5944365163227376E-01   -1.2253245253531688E+01   -8.4789779885964844E-01    1.2698046088331656E+00   -4.4760370717325406E+00 \
               2.9807579810139593E+01    2.5014939439468993E+00   -1.9767761185015231E+00    1.2062325032173575E+00    3.0223365810252862E+00 \
               2.4001152661079845E+00   -6.1482777763315877E+00    1.6327754188450887E+00   -1.5226678808416283E+00    6.2810024127645225E-01 \
               7.0859207010316165E+00   -8.4978679373911579E+00   -2.1435548040115634E+01    2.8782185496452999E+00   -1.0298030355570837E+01 \
               6.9009977551994890E+00   -5.3022536717996376E+00   -2.9427523526257926E-01    1.1256231599035594E+01   -1.1985697573330553E+01 \
               1.6993630242544267E+01   -8.0034235503912363E+00    4.6823076524810388E+00   -4.3113786094189290E+00   -4.8628818165754062E+00 \
              -4.4084789049273603E+00    1.5660829456987011E+00    4.1604354997389779E+00   -2.4091851886584067E+01   -5.5754844944264736E-01 \
               8.1219185155534728E+00   -7.0105284357821178E+00   -3.8619803687108480E+00    6.3015823031855711E-02   -5.0479224892279779E+00 \
              -1.4266413894677901E-01   -7.8595587591616212E-01    2.8202403999691383E+00   -3.2621654129004418E+00    1.2432258635073312E+00 \
              -2.5140397148867443E+01    6.8379095962837084E+00   -5.3251771390809903E+00   -1.3007407055230191E+00   -7.2640877949628537E+00 \
              -4.7860571523878708E+00    8.4980571437473582E+00   -8.5157956836365614E+00    6.6548855133638485E+00    3.0039936777999072E+00 \
              -9.1114635727000888E+00    3.4287350169893460E+00   -9.3379665788992643E+00    5.6959582012239869E+00    5.0103696115285712E-01 \
              -5.6940460919947578E+00    2.0544121691964317E+01   -5.1716171360785795E-02    5.7407224165980777E+00   -9.1727598890857298E-01 \
               1.9024916158097540E+01    3.7174932538061518E+00   -1.9766566376966082E+00   -1.1180701683876877E+00    3.1292522896640602E+01 \
               1.2709702751915046E+00   -5.3781231290973084E+00    2.5881426340687197E+00    4.9289579611639356E+00   -2.7669105712465121E+00 \
               6.5466264416004680E+00   -2.3424533151518334E+00   -9.0326088056995122E+00    2.4130971095322553E+00   -5.8999261900847646E+00 \
               2.3987153327755828E+00   -1.0734901075550495E+01   -2.0963925132592145E+00   -5.1582431423734443E-01    1.9295787755095861E+00 \
              -1.9358199193593116E+01   -4.0800377436813706E-01   -4.2548529653480882E+00    5.6399708356756699E+00   -2.0810533972560872E+01 \
              -4.8573830425684994E+00   -4.1966108032369220E+00    5.7739000878740958E+00    3.0409250221581782E+01    1.4076498724724422E+00 \
              -1.0866274699967282E+00   -9.6547088913814111E-02   -1.0991579130894571E+01   -4.7219461780405797E-01   -7.4855969923029377E+00 \
               7.8944993599293980E+00   -1.4287817685467045E+01    6.2662844587568800E-01   -4.2897107383173063E+00    4.9665059774263405E+00 \
              -1.6085042623966302E+01   -3.2583622224223068E+00    3.5032006033486747E+00   -5.7292980043158082E+00    8.1919633820593134E+00 \
              -5.7451031738654121E+00    4.7913165205412929E+00   -2.4394183807449998E+00    2.2888936300183236E+01   -7.7969171021148167E+00 \
               1.1394452572134604E+01   -6.9655481783371949E+00   -3.5666509215970232E+00   -1.1050806564967530E+00    8.5594267727843754E+00 \
              -1.0148306318945522E+01    3.3319886176136421E-01   -2.0301537711930067E+00   -1.3485965708703145E+00   -1.0064786662694754E+00 \
              -3.3006538934346676E+00   -5.7362358038562498E+00    9.9285456752878076E-01    3.2242198875290256E+00    1.7043240572354325E+01 \
               1.6199148215247996E+00    3.5798791402293588E+00   -7.7790600147913054E+00   -2.0832783255298523E+01   -7.0985595804199670E+00 \
               7.7906015104319462E+00   -5.1917615149482197E+00    7.8537726496052382E+00   -2.6638481518851789E+00    6.8538752477995002E-01 \
               2.4884111907622550E+00    2.6777616315343231E+01    2.6065341264199864E+00    5.5415395214066052E+00   -1.0905925633128216E+01 \
              -1.5288985461629514E+00   -2.9118127519593218E-01    1.1326379132557353E+01   -1.1895619656757274E+01    9.5762045272361043E+00 \
               4.3671144578808221E+00    2.9093811619289334E-01   -5.2047520174668165E+00   -1.3427441315438540E-01   -4.3530247972920986E+00 \
              -4.4954296979508407E-01    3.1524156665828960E+00    6.8985647042486331E+00    7.7561885750698822E+00   -6.2190130639264156E+00 \
               3.5024202727513259E-01    1.8866533928246287E+01   -7.8192648757364376E+00   -1.7771269649789811E+00    7.6114083703096451E+00 \
              -1.6801092953391013E+01    2.9314377852778928E+00    9.5518375840889647E-01   -3.9827344676778105E+00    1.1918812624201435E+01 \
              -1.0705779985377065E+01    3.3654048678096045E+00    2.4099650541028774E+00   -1.2708046104907718E+00    4.0813476561887363E+00 \
               2.1668061970360335E+00   -1.0059032840446459E+01    2.6921288602698350E+01    1.5296781621795190E+00   -7.6448017021781856E-01 \
              -3.9811627573213193E+00   -2.1842452324471026E+01    5.8215841612028507E-01    3.8784265964624463E+00   -8.7010739366372629E+00 \
              -3.0951643824100337E+01   -3.7371878684924664E+00   -4.5251551891137760E+00    6.8217759899354746E+00    8.0227811081223539E+00 \
               2.5323302859593642E+00   -7.6330409413869580E+00    6.8365767467649761E+00    3.1281593974567340E+01   -2.3838547352121013E+00 \
               5.6491110708221779E+00   -7.1374089822439766E+00    2.9104541796206341E+01    5.7672390830297244E+00   -7.0106090839307269E+00 \
               2.4522482144325628E+00    2.9652049748020399E+01   -5.2493362647175801E-01    1.1696312010697860E+00    1.1470745573704244E+00 \
               6.6644190151631677E-01   -6.3347246029539575E+00   -1.6748844507928626E+00    3.5782333911403015E+00    6.8062851989220459E+00 \
              -7.4185619781438668E+00    6.7135730364973645E+00   -3.4213892178803933E+00    7.8132741567409312E+00   -1.4906772158410346E+00 \
               5.2882462515397588E+00   -8.2972834789019707E+00    1.6901647220455992E+01   -4.7912779695082488E+00    1.3590314012726883E+00 \
               2.9773604636647568E+00   -8.9554963632067341E+00   -2.9782198687737238E-01   -7.4040819800008446E+00    6.6579668711423956E+00 \
               2.7574563856500141E+00    4.5758907492345813E-01   -5.0039770874582965E+00    1.9380088193579936E+00    2.3029638014721261E+01 \
              -1.2910478357277142E+00   -4.2214334069883341E-01    3.7188626782944585E+00   -1.6639475299699324E+00   -2.2126298171963632E+00 \
              -7.6192632398573226E+00    9.8102124923883149E+00   -2.2252789018350711E+01    1.5218484997436348E+00    4.6960763351852046E+00 \
              -9.3255741750200123E+00    1.0083045010961674E+01   -5.8951274666733546E+00    4.3583836647282119E+00    1.3770804545402585E-01 \
               1.9621170265575014E+01   -4.2387832599425140E-01   -2.8608329207496150E+00    3.3876609610487654E+00    2.8588863941292885E+01 \
              -1.5450085166204910E-01   -4.4856127183186576E+00   -3.2027279341711359E-02   -6.0835554938804020E+00    1.3796342163136141E-02 \
               2.0318122413708801E+00   -4.4739120596692175E+00   -2.0422613427601624E+00    2.5186082737934359E+00    2.1747110186801142E+00 \
              -3.7387401474799553E+00    1.0136815346547149E+01    4.2952470235878808E+00   -5.0666220020207442E+00    1.7992063689802509E+00 \
              -6.6035373069556238E+00    3.9880715258570762E+00    9.3478114786252107E+00   -1.1098068715856973E+01    1.4808893448617967E+01 \
              -7.1685488017472036E-03   -6.1224528062142571E+00    1.4324837322953283E+00    8.5408578033925959E+00   -3.1402888351771376E+00 \
              -1.6626839466517076E+00    1.4225498087461879E+00   -5.1752100539921377E+00   -5.3508347683977817E+00    2.4221185581171709E+00 \
              -3.0470324287359762E+00    1.4201284660858608E+01    1.3313481115097696E+00    2.9624568321348264E+00   -3.0401179001257859E+00 \
              -1.6748903891129704E+01   -3.0211780920519264E+00    1.4525476043352111E+01   -1.4769327016106947E+01   -2.5266043383395761E+01 \
              -2.8129156962092319E+00    1.4043359366429997E+00   -3.1970473542104444E-01    5.5078913537049452E+00   -2.8154243870963782E+00 \
              -3.4737097426506969E+00    3.3178201591838974E+00   -2.9746749860933628E+00    4.7906606020765025E-01    4.6929830027061137E-01 \
              -3.4541780836580007E+00   -7.9081614026890890E+00    6.2891821404812758E+00   -5.9562584653193209E+00   -1.6995693787866244E+00 \
              -3.3665050618460967E+01   -8.1301124171277672E-01    2.0886416052506602E+00   -2.8440129294127949E+00    8.2639877305964529E+00 \
              -2.9156920838514089E-01    8.9489005498643053E+00   -8.9230836369068829E+00   -7.9911019032667108E+00    2.5438783201763662E+00 \
              -1.3270977066630937E+01    8.9603006805926917E+00    1.1475996687333595E+01   -1.0662965153841366E+00   -1.4010010842381066E+01 \
               1.2187432587273848E+01    6.5909995471505556E-01   -3.8552487028871352E+00    4.7441882405536724E+00   -1.9169740778405198E+00 \
              -6.2051468534973049E+00   -6.9216584169736270E+00    2.5235768723009593E+00    1.7938997025475869E+00   -3.3687642315604528E+01 \
              -4.7966676002492967E+00    2.7196604865925957E+00   -2.1088542463698774E+00   -2.0878767844246891E+01   -1.8663056073389819E+00 \
              -9.1621012137357616E-01    1.6123673529547571E+00   -7.7749360874768030E+00   -6.1164641432558682E+00   -3.4495645379498057E+00 \
               9.6284638993920133E+00    1.5606217229503429E+01   -2.9830447142190724E+00    7.1893078478015573E+00   -7.0480241285565199E+00 \
               2.0238969083222425E+01   -5.8724942706909786E+00   -6.6003252756197228E-01    3.7199388126464061E+00    7.1161056206321116E-01 \
              -4.4146443687721622E+00    4.0552421090613343E-03   -3.0686365567361178E+00   -3.1154004954817115E+01    3.1148407904582203E+00 \
              -2.8572610229602335E-01   -5.4740645340219496E+00   -3.3139096264792705E+01   -2.1918526901217033E+00    2.1908576249251777E+00 \
              -2.2593328028397628E+00    6.2130926278977350E-01    3.0779089042250103E+00   -8.5680125753171215E+00    3.8330615000430219E+00 \
               1.3702002179026115E+01    2.5832278493949996E+00   -7.0021345469209066E+00    5.3399507395609209E+00   -2.6361733712406235E+01 \
              -3.5846997403387602E+00    2.1773100936899530E+00    1.1198595794685642E+00   -7.1379729232852573E-01    1.2056404359385304E+00 \
               4.4142413719690472E+00   -6.4021932097495347E+00   -3.1588058421928636E+01    1.0656375211380398E+00   -8.1107772442176209E+00 \
               7.2159404979081678E+00   -1.5006250695839380E+01   -2.9915269457232352E+00   -4.4672274463116270E+00    3.2866744855968926E+00 \
              -1.1044330248919495E+01    7.9376951165708176E-01    3.2071767928990260E+00   -6.8532134573597876E+00    2.9561906668698157E+01 \
              -5.5130957163543819E+00    9.4920641782847017E+00   -5.9735875583641596E+00    9.5203112333360398E+00    6.9374387663665193E-01 \
              -5.9501942634563401E+00   -8.6244621543167788E-01   -1.9953020867808149E+01   -5.3993154974165669E-01   -1.2674071283130964E+01 \
               5.9385077982112051E+00   -1.6646361047490377E+01   -3.3279093626754617E+00   -1.1877153059615024E+00    2.0738905626923363E+00 \
              -5.4223164188343222E+00    2.4823609494615018E+00    1.4782110981722056E+00   -1.2659260037828317E+00   -1.8245939912145945E+00 \
              -7.3831624883782676E-01    4.7545445198454619E+00   -4.6864584533503235E+00   -7.9562319582099414E+00    4.8226885743097048E-01 \
              -1.4601949850734917E+00   -1.1142338638078921E+00   -1.3903727741263719E+01   -5.4737028789933462E-01   -6.9692181133797932E+00 \
               4.8224109149137329E+00    1.0618805586504161E+01   -2.4644532785847466E+00    1.0961186530609485E+01   -1.0074680754426870E+01 \
               1.4217577228370473E+00   -5.6572285327548846E+00    2.2703818909353726E+00    2.7112370070382041E-01    1.4912892594541918E+00 \
               3.0388174992586841E+00   -1.4042060540778690E+01    8.4743089026787750E+00    2.0562619417917858E+01   -5.7033755888122171E+00 \