&FORCE_EVAL
  &DFT
    UKS
    CHARGE -1
    BASIS_SET_FILE_NAME ./BASIS_MOLOPT
    POTENTIAL_FILE_NAME ./POTENTIAL
    &MGRID
      CUTOFF 280
      NGRIDS 6
      SKIP_LOAD_BALANCE_DISTRIBUTED FALSE
    &END MGRID
    &POISSON
       PERIODIC NONE
       POISSON MT
    &END POISSON
    &QS
      EPS_DEFAULT 1.0E-12
      EXTRAPOLATION ASPC
      EXTRAPOLATION_ORDER 3
    &END QS
   &SCF
      SCF_GUESS RESTART
      EPS_SCF 1.0E-6
      MAX_SCF 300
      &OUTER_SCF
        EPS_SCF 1.0E-6
        MAX_SCF 30
      &END
      &OT
        MINIMIZER DIIS
        PRECONDITIONER FULL_SINGLE_INVERSE
        ENERGY_GAP 0.01
      &END OT
      &PRINT
         &RESTART OFF
         &END RESTART
      &END
    &END SCF
    &XC
      &XC_FUNCTIONAL PBE
      &END XC_FUNCTIONAL
    &END XC
  &END DFT
  &SUBSYS
    &CELL
      ABC   34.0 34.0 34.0
      PERIODIC NONE
    &END CELL
    &COORD
 O   14.675     8.105    10.915
 H   15.225     7.575    11.565
 H   13.725     7.805    10.955
 O   10.145    22.955    21.115
 H    9.885    23.885    21.345
 H    9.515    22.595    20.425
 O   24.805    15.685    12.105
 H   24.515    16.565    11.735
 H   24.065    15.025    11.995
 O   20.545    17.095    27.465
 H   21.255    17.015    28.165
 H   20.685    16.395    26.765
 O    9.715    13.915    13.185
 H    9.295    13.105    13.585
 H   10.655    13.715    12.925
 O   18.265    23.875     6.785
 H   18.475    24.115     5.835
 H   19.115    23.695     7.275
 O   20.415    15.175     9.145
 H   19.805    15.005     9.915
 H   19.905    15.565     8.385
 O   19.675    20.185    19.645
 H   18.785    20.435    19.255
 H   20.215    19.695    18.965
 O   12.295    25.505    11.955
 H   11.455    24.975    12.045
 H   12.975    24.965    11.445
 O   25.245    18.435    20.385
 H   24.245    18.455    20.405
 H   25.555    17.545    20.065
 O    9.925    13.075    16.445
 H    9.405    13.265    17.275
 H   10.235    13.935    16.045
 O   11.395    16.735    22.925
 H   12.115    17.125    22.345
 H   10.885    16.055    22.415
 O   22.425     8.775    19.145
 H   21.925     7.995    19.505
 H   23.195     8.465    18.595
 O   20.135    26.115    15.225
 H   19.665    26.005    16.105
 H   19.505    26.515    14.555
 O   17.985    21.585    10.695
 H   17.895    22.545    10.955
 H   18.165    21.035    11.515
 O   20.265     6.965    20.135
 H   20.375     6.875    21.125
 H   19.295     6.975    19.905
 O   22.535    14.445    22.815
 H   22.585    13.445    22.785
 H   23.365    14.825    22.405
 O   14.485    24.025    10.585
 H   15.175    24.235     9.885
 H   14.385    23.035    10.675
 O   12.465     9.135    22.995
 H   11.765     9.365    23.675
 H   12.115     8.435    22.375
 O   11.915    12.875    24.585
 H   11.095    13.355    24.875
 H   12.505    12.715    25.375
 O   24.695    15.065    21.475
 H   25.215    15.705    20.905
 H   24.995    14.135    21.295
 O   16.495    24.625    13.665
 H   15.605    24.595    13.205
 H   16.525    25.405    14.275
 O   15.825    14.335    26.955
 H   15.585    15.195    27.405
 H   16.685    14.455    26.455
 O   15.455    27.655    14.545
 H   14.835    26.895    14.375
 H   15.075    28.255    15.245
 O   12.135    19.005    26.135
 H   11.645    19.815    25.805
 H   13.075    19.035    25.825
 O   25.205    14.725    14.865
 H   25.335    14.745    13.865
 H   24.285    14.385    15.075
 O   15.505    10.985    18.035
 H   15.875    11.685    17.425
 H   15.465    11.335    18.965
 O   18.815    14.095    13.855
 H   19.585    13.665    14.325
 H   18.445    13.455    13.175
 O   14.645    22.945    23.205
 H   14.905    23.145    22.265
 H   15.465    22.765    23.755
 O   24.775    26.355    16.665
 H   23.855    26.005    16.465
 H   24.695    27.215    17.165
 O   11.985    11.625    21.955
 H   11.895    12.075    22.845
 H   12.435    10.745    22.065
 O   14.615    19.255     9.155
 H   14.905    19.765     9.955
 H   14.875    19.755     8.325
 O   12.135    20.245    16.565
 H   11.995    20.995    17.225
 H   11.435    20.305    15.855
 O   18.395    22.605    21.055
 H   18.165    21.645    21.215
 H   19.355    22.765    21.265
 O   19.255    18.935    25.835
 H   19.335    18.335    25.045
 H   19.625    18.475    26.645
 O   12.765    13.345    11.615
 H   12.335    14.035    11.035
 H   13.355    13.775    12.285
 O    8.745    19.715    14.845
 H    7.855    20.065    15.155
 H    8.885    18.795    15.205
 O   14.765    21.385    13.615
 H   14.045    20.745    13.335
 H   14.765    21.475    14.605
 O   14.175    13.995     8.265
 H   15.095    14.385     8.325
 H   13.495    14.685     8.525
 O   14.765    26.965    22.025
 H   15.615    26.825    21.515
 H   14.975    27.315    22.935
 O    7.645    23.275    16.835
 H    8.225    23.155    16.025
 H    7.595    24.245    17.075
 O   26.855    20.575    20.875
 H   27.715    20.585    20.365
 H   26.435    19.675    20.795
 O   16.885    14.495     8.515
 H   17.505    14.575     7.735
 H   17.385    14.655     9.365
 O   17.255    17.405     8.695
 H   16.855    18.285     8.945
 H   16.575    16.675     8.815
 O   12.125    15.915     9.925
 H   11.255    15.435     9.795
 H   12.035    16.585    10.655
 O   15.875     4.895    20.085
 H   16.315     5.775    19.925
 H   14.945     5.035    20.425
 O    8.935    12.385    23.305
 H    9.735    11.805    23.125
 H    9.175    13.105    23.945
 O   20.245    20.615     9.205
 H   19.635    21.195     9.735
 H   20.145    20.835     8.235
 O   14.775     8.435    17.855
 H   15.105     9.375    17.925
 H   14.475     8.255    16.915
 O   15.975    13.835    22.375
 H   15.165    14.115    22.875
 H   16.535    14.635    22.165
 O   16.695    20.155    26.415
 H   17.525    19.615    26.305
 H   16.695    20.585    27.315
 O   14.675     8.735    15.275
 H   14.595     7.765    15.055
 H   14.835     9.255    14.435
 O   17.405    19.985    22.325
 H   18.255    19.445    22.355
 H   16.675    19.435    21.905
 O   24.665    25.675    20.365
 H   24.905    24.705    20.455
 H   25.465    26.185    20.075
 O   25.275    18.375    12.345
 H   25.265    17.785    13.145
 H   25.185    19.325    12.625
 O   19.425    18.345    10.775
 H   19.925    19.135    10.415
 H   18.975    17.865    10.025
 O   19.965    17.255    23.545
 H   20.095    16.515    22.885
 H   20.335    18.105    23.165
 O    8.555     9.205    17.525
 H    8.465     9.655    16.635
 H    8.695     9.895    18.235
 O   25.495    23.815    15.475
 H   25.475    24.775    15.755
 H   24.695    23.615    14.905
 O   15.325    12.375    10.675
 H   15.455    13.035     9.945
 H   14.345    12.265    10.855
 O   22.565    26.995    19.095
 H   23.405    26.585    19.455
 H   22.025    26.295    18.635
 O   15.085     5.695    17.405
 H   15.565     5.185    18.125
 H   15.085     6.675    17.635
 O   13.595    25.955    16.965
 H   13.615    25.725    15.995
 H   13.945    26.885    17.095
 O   16.945    21.845    24.155
 H   16.575    21.405    24.975
 H   16.855    21.225    23.375
 O    8.895    16.655    13.125
 H    9.085    15.685    12.955
 H    8.635    16.785    14.075
 O    5.025    12.265    20.205
 H    5.875    11.885    20.565
 H    4.545    11.565    19.685
 O    7.655    11.345    21.005
 H    8.115    11.675    21.835
 H    8.335    11.075    20.325
 O   14.905    28.485    17.365
 H   14.725    29.105    18.135
 H   15.795    28.055    17.505
 O   17.235    25.935    21.195
 H   17.015    25.045    21.595
 H   18.215    26.015    21.075
 O   16.705    16.275    12.165
 H   16.785    17.025    12.815
 H   16.205    16.595    11.355
 O   19.505     7.805    13.685
 H   18.785     8.365    13.295
 H   19.095     7.065    14.225
 O   23.865    15.325    18.125
 H   23.855    14.795    18.975
 H   22.925    15.475    17.825
 O   19.105    15.955     6.925
 H   19.555    16.365     6.135
 H   18.435    16.595     7.295
 O   17.275     7.165    19.695
 H   17.465     7.705    18.875
 H   17.335     7.755    20.505
 O   15.635     6.455    12.815
 H   16.265     6.665    13.565
 H   14.835     5.975    13.185
 O   14.595    14.715    13.025
 H   15.435    15.165    12.735
 H   14.795    14.055    13.745
 O    9.535    26.005    17.445
 H    9.455    25.555    16.555
 H   10.235    25.535    17.985
 O   10.915    15.505    15.955
 H   11.535    15.955    15.305
 H   11.265    15.645    16.885
 O   22.315    14.585    11.205
 H   21.935    15.165    11.925
 H   21.895    14.825    10.325
 O   12.535    20.865    20.825
 H   12.915    20.905    21.745
 H   11.725    21.445    20.775
 O   10.085    11.105    13.325
 H   10.345    10.925    12.385
 H   10.435    10.385    13.925
 O   12.815    23.325    15.865
 H   12.095    22.835    16.355
 H   13.705    22.915    16.085
 O   21.845    18.335    13.835
 H   21.435    17.465    13.565
 H   22.695    18.165    14.335
 O   18.515    20.175    12.905
 H   18.635    20.045    13.885
 H   19.025    19.465    12.415
 O    8.805    17.185    15.955
 H    8.125    16.965    16.655
 H    9.455    16.435    15.865
 O   13.785    14.875    23.615
 H   12.975    15.375    23.315
 H   13.525    14.245    24.355
 O   19.615    16.035    17.595
 H   19.535    16.245    16.625
 H   18.725    16.145    18.035
 O   22.465    21.615    19.845
 H   22.475    20.615    19.765
 H   21.985    21.885    20.675
 O   20.585    19.465    22.195
 H   20.625    20.185    22.885
 H   20.175    19.835    21.355
 O    9.015     6.985    19.175
 H    9.095     7.675    18.455
 H    8.115     6.555    19.135
 O    9.735    12.325     8.375
 H    9.045    11.735     7.945
 H   10.455    12.535     7.715
 O    8.625    21.975    19.045
 H    8.095    22.485    18.375
 H    8.495    20.995    18.905
 O   22.395     9.765    13.525
 H   21.745     9.005    13.555
 H   22.035    10.485    12.935
 O   25.255    22.955    20.275
 H   24.385    22.465    20.125
 H   25.865    22.375    20.815
 O   25.735    21.125    13.325
 H   26.045    21.325    12.395
 H   25.355    21.955    13.725
 O   17.225    13.425    18.475
 H   17.315    13.345    17.485
 H   16.865    14.325    18.705
 O   18.025    24.075    11.395
 H   18.935    23.735    11.615
 H   17.555    24.345    12.235
 O   18.275    12.315    23.195
 H   17.315    12.615    23.215
 H   18.845    13.055    22.835
 O   11.175    14.475    20.895
 H   10.185    14.315    20.845
 H   11.655    13.595    20.945
 O   11.755    18.855    19.005
 H   11.655    19.435    18.195
 H   12.185    19.365    19.745
 O   14.945    10.165    13.065
 H   15.135    10.945    13.655
 H   14.455    10.465    12.255
 O   20.615    19.855    15.625
 H   20.895    19.085    15.055
 H   21.415    20.415    15.855
 O   20.455     9.655    17.375
 H   20.035    10.295    18.015
 H   20.995     8.985    17.885
 O   14.595    21.685    19.055
 H   14.695    22.675    18.935
 H   13.735    21.495    19.525
 O   17.555    16.065    21.785
 H   18.555    16.025    21.765
 H   17.215    16.335    20.885
 O    7.725    16.205    18.425
 H    8.245    15.395    18.685
 H    8.265    17.025    18.625
 O   18.715    24.915    17.485
 H   18.635    24.415    16.625
 H   19.235    24.365    18.145
 O   14.335    18.255    15.855
 H   14.875    17.855    16.595
 H   13.805    19.025    16.205
 O    9.955     9.525    24.265
 H    9.585     8.665    23.895
 H    9.245    10.015    24.755
 O   10.575    21.095    13.565
 H    9.895    20.505    14.015
 H   10.965    20.605    12.775
 O   25.495    19.845    15.705
 H   25.655    20.315    14.845
 H   25.805    20.415    16.465
 O   16.545    24.345     8.885
 H   17.015    24.315     8.005
 H   17.225    24.345     9.615
 O   21.845    25.115    17.275
 H   21.325    25.365    16.455
 H   21.625    24.175    17.535
 O   20.475    23.445    19.085
 H   21.205    22.795    19.305
 H   19.585    23.015    19.265
 O   21.075    13.215    15.245
 H   20.715    12.285    15.185
 H   22.015    13.185    15.595
 O   15.785    23.515    20.845
 H   16.705    23.175    20.635
 H   15.375    23.885    20.005
 O   20.745    16.215    12.415
 H   20.065    15.545    12.705
 H   20.315    16.895    11.815
 O   12.845    20.905    23.685
 H   13.475    20.255    24.115
 H   13.295    21.795    23.615
 O   10.185    21.045    23.275
 H   11.175    20.935    23.355
 H    9.965    21.525    22.425
 O   24.205    17.605    15.005
 H   24.425    16.675    15.285
 H   24.805    18.245    15.465
 O   18.555    14.665    11.095
 H   18.205    13.755    11.355
 H   18.085    15.365    11.635
 O   26.155    16.255    19.125
 H   25.445    15.925    18.505
 H   27.025    16.305    18.625
 O   11.795    24.725    18.535
 H   12.305    25.135    17.785
 H   12.245    24.915    19.405
 O   19.725    21.295    24.285
 H   19.765    20.625    25.025
 H   18.775    21.585    24.145
 O    9.265    14.905    24.825
 H    8.825    15.355    24.045
 H    9.895    15.555    25.265
 O   19.085    11.555    19.085
 H   18.585    10.995    19.745
 H   18.485    12.295    18.755
 O   22.755    20.985    16.825
 H   22.915    21.595    17.605
 H   23.555    20.405    16.675
 O   25.005     8.065    18.065
 H   25.165     7.805    19.015
 H   25.705     8.715    17.775
 O   10.145    10.745    19.775
 H   10.725    10.385    19.055
 H   10.705    11.015    20.565
 O   13.565    17.485    21.385
 H   14.095    17.275    20.555
 H   14.155    17.395    22.185
 O   26.185    11.055    17.375
 H   25.575    10.655    16.695
 H   26.675    11.825    16.965
 O   13.785    28.705    20.075
 H   12.895    28.365    19.755
 H   14.225    28.005    20.635
 O   24.145     9.715    15.855
 H   23.625     9.605    15.005
 H   24.325     8.825    16.255
 O   26.335    21.905    17.465
 H   25.875    22.455    16.765
 H   26.215    22.325    18.355
 O   14.915    21.705    16.325
 H   14.535    21.675    17.245
 H   15.915    21.605    16.375
 O   20.095    14.885    21.785
 H   20.035    14.555    20.845
 H   21.005    14.695    22.155
 O   15.045    24.385    18.385
 H   14.375    25.025    17.995
 H   15.955    24.605    18.045
 O   22.245    21.015    13.285
 H   21.855    20.125    13.545
 H   22.755    20.915    12.435
 O   17.545    12.265    12.015
 H   17.815    11.305    11.965
 H   16.615    12.365    11.645
 O   18.395    23.375    15.335
 H   17.665    23.745    14.765
 H   18.365    22.375    15.315
 O   12.675    16.605    14.265
 H   13.155    17.345    14.725
 H   13.325    16.045    13.755
 O   27.025    13.695    16.605
 H   27.505    14.515    16.905
 H   26.315    13.945    15.945
 O    8.895     7.255    23.015
 H    9.655     6.865    22.495
 H    8.285     7.745    22.395
 O   17.895    20.545    15.925
 H   17.535    20.385    16.845
 H   18.815    20.145    15.855
 O   27.655    19.165    18.315
 H   26.925    18.855    18.925
 H   27.275    19.785    17.625
 O   17.855     8.565    17.245
 H   18.745     8.945    17.015
 H   17.135     9.105    16.805
 O   14.155     5.165    14.835
 H   14.555     5.145    15.745
 H   13.155     5.085    14.905
 O   14.905     9.895    21.675
 H   14.275     9.585    22.385
 H   14.645    10.815    21.375
 O    6.665    14.795    20.505
 H    6.615    15.385    19.705
 H    5.815    14.285    20.605
 O   16.585     9.845     9.935
 H   16.315    10.805     9.875
 H   15.785     9.285    10.145
 O   21.625    11.485    11.455
 H   20.935    11.635    10.745
 H   22.145    12.335    11.595
 O   11.115     7.095    21.035
 H   10.425     7.105    20.315
 H   12.025     7.165    20.635
 O   17.625    10.265    21.395
 H   17.855    10.935    22.105
 H   16.635    10.125    21.395
 O   14.715    19.225    24.915
 H   15.405    19.665    25.495
 H   15.035    18.325    24.635
 O   25.145    20.225     8.535
 H   25.185    20.245     7.535
 H   25.465    19.335     8.865
 O   21.955    24.915    10.155
 H   22.825    24.495    10.425
 H   21.525    25.325    10.955
 O   21.525    25.255    13.055
 H   21.095    24.365    12.905
 H   21.155    25.675    13.875
 O   23.445    23.545    13.705
 H   22.935    22.685    13.715
 H   22.875    24.265    13.315
 O   25.155    12.655    20.125
 H   25.675    12.195    19.405
 H   24.195    12.385    20.055
 O    9.565    14.545    10.385
 H    9.545    13.605    10.055
 H    9.395    14.555    11.375
 O    8.845    13.485    19.225
 H    9.415    12.725    19.525
 H    8.065    13.595    19.845
 O   20.105    22.965    12.905
 H   19.935    23.185    13.865
 H   20.605    22.095    12.845
 O   19.485    10.795    15.015
 H   19.625    10.115    14.295
 H   19.865    10.445    15.875
 O   13.675    14.215    18.855
 H   14.405    14.885    18.955
 H   12.795    14.685    18.725
 O   10.135    23.715    12.575
 H    9.585    23.505    11.765
 H   10.435    22.865    12.995
 O   11.155    11.295    10.785
 H   11.585    12.115    11.165
 H   10.765    11.515     9.895
 O   11.545    16.255    18.775
 H   11.065    15.835    19.555
 H   11.675    17.225    18.955
 O   21.095    18.435    18.195
 H   20.525    17.615    18.305
 H   21.325    18.555    17.235
 O   18.225    15.185    25.905
 H   18.405    16.145    26.145
 H   19.095    14.705    25.775
 O   11.765     9.865    17.835
 H   12.105    10.735    17.495
 H   12.505     9.195    17.815
 O   15.285    21.155    10.955
 H   16.255    21.235    10.735
 H   15.145    21.335    11.925
 O   17.545    12.775    15.855
 H   17.995    11.945    15.505
 H   17.835    13.565    15.305
 O   28.505    16.375    17.835
 H   29.455    16.445    17.505
 H   28.165    17.295    18.035
 O   18.735    16.805    14.995
 H   18.525    15.975    14.475
 H   17.955    17.435    14.945
 O   20.185    26.155    20.515
 H   20.865    26.855    20.285
 H   20.205    25.435    19.835
 O   11.185    22.195    17.985
 H   11.425    23.155    18.125
 H   10.285    22.025    18.375
 O    9.215    18.495    22.625
 H    9.375    19.395    23.015
 H   10.035    17.935    22.725
 O   13.725     7.875    20.345
 H   14.065     7.885    19.405
 H   14.195     8.565    20.885
 O   25.565    14.955     9.615
 H   25.665    15.165    10.585
 H   24.645    14.615     9.435
 O   23.645    12.885    16.275
 H   23.525    11.895    16.345
 H   24.205    13.215    17.035
 O   24.255    23.545    11.025
 H   24.115    23.515    12.015
 H   24.975    22.895    10.765
 O    8.265    10.955    15.545
 H    8.855    11.765    15.655
 H    8.485    10.505    14.685
 O    8.895    18.475    19.465
 H    9.815    18.755    19.205
 H    8.775    18.585    20.455
 O   16.885     6.815    15.215
 H   16.865     7.485    15.955
 H   17.445     6.035    15.475
 O   22.525    18.645    20.555
 H   21.925    18.645    21.345
 H   22.005    18.385    19.735
 O   17.865     9.365    12.205
 H   17.795     9.145    11.235
 H   16.965     9.285    12.635
 O   14.755    12.405    20.595
 H   14.495    13.015    19.845
 H   15.265    12.915    21.285
 O    8.685    15.695    22.055
 H    7.975    15.195    21.575
 H    8.315    16.555    22.415
 O   13.835    25.355    14.345
 H   13.145    25.635    13.665
 H   13.575    24.465    14.715
 O   11.485    16.405    25.715
 H   11.575    17.345    26.055
 H   11.555    16.395    24.715
 O   21.035    15.535    25.345
 H   20.855    16.335    24.765
 H   21.575    14.865    24.835
 O   11.995    13.575     6.605
 H   11.965    14.485     6.195
 H   12.785    13.495     7.205
 O   20.595    13.985    19.215
 H   20.075    13.135    19.215
 H   20.465    14.465    18.345
 O   12.665    25.065    21.295
 H   13.285    25.755    21.685
 H   12.665    24.255    21.885
 O   12.665    12.445    16.805
 H   11.725    12.745    16.665
 H   13.095    13.035    17.485
 O   26.465    21.525    10.595
 H   25.835    21.225     9.885
 H   27.395    21.225    10.365
 O   13.375    13.215    26.895
 H   12.885    13.615    27.665
 H   14.345    13.455    26.955
 O   20.955    24.125     7.475
 H   21.635    24.555     6.875
 H   21.085    24.445     8.415
 O   14.915    16.765    10.285
 H   14.035    16.315    10.415
 H   14.825    17.525     9.645
 O   11.505    17.555    11.965
 H   10.515    17.505    12.035
 H   11.915    17.215    12.815
 O   15.005    12.085    14.885
 H   14.275    12.105    15.565
 H   15.875    12.295    15.325
 O   25.845    17.935     9.705
 H   25.625    18.105    10.665
 H   25.905    16.945     9.555
 O   15.655    21.725     7.435
 H   16.395    21.985     8.055
 H   15.335    22.535     6.945
 O   10.665     9.235    15.075
 H   11.005     9.475    15.975
 H   10.415     8.265    15.055
 O   12.685    19.985    12.005
 H   13.155    20.155    11.135
 H   12.195    19.115    11.955
 O   17.955    27.155    13.665
 H   17.895    27.655    12.805
 H   17.115    27.285    14.195
 O   22.815    20.475    10.755
 H   21.995    20.835    10.325
 H   23.445    20.135    10.055
 O    9.935    24.125    15.285
 H   10.895    24.365    15.465
 H    9.855    23.785    14.345
 O   22.655    11.865    19.715
 H   22.505    10.985    19.245
 H   21.825    12.415    19.655
 O    7.655     8.565    21.065
 H    8.245     8.165    20.365
 H    7.555     9.545    20.895
 O   15.485    16.875    23.435
 H   15.075    15.975    23.615
 H   16.395    16.755    23.045
 O   16.585    18.285    14.015
 H   16.825    19.115    13.515
 H   15.825    18.475    14.635
 O   16.885    26.855    18.475
 H   17.645    26.405    18.005
 H   16.885    26.595    19.435
 O   21.765    25.125    22.375
 H   22.645    25.615    22.355
 H   21.125    25.565    21.745
 O   17.045    20.385    18.465
 H   16.995    19.385    18.515
 H   16.235    20.775    18.915
 O   20.975    22.575    22.175
 H   20.515    22.155    22.955
 H   21.435    23.415    22.475
    &END COORD
    &KIND H
      BASIS_SET TZV2P-MOLOPT-GTH
      POTENTIAL GTH-PBE-q1
    &END KIND
    &KIND O
      BASIS_SET TZV2P-MOLOPT-GTH
      POTENTIAL GTH-PBE-q6
    &END KIND
  &END SUBSYS
&END FORCE_EVAL
&MOTION
  &MD
   ENSEMBLE NVE
!   STEPS 1
   STEPS 10
!   STEPS 0
   TIMESTEP 0.5
   TEMPERATURE 300.0
  &END MD
    &PRINT
        &TRAJECTORY
            &EACH
                MD 10
            &END EACH
        &END TRAJECTORY
        &VELOCITIES
            &EACH
                MD 10
            &END EACH
        &END VELOCITIES
        &RESTART
            &EACH
                MD 10
            &END EACH
        &END RESTART
    &END PRINT
&END MOTION
&GLOBAL
  PROJECT W216
  RUN_TYPE MD
  PRINT_LEVEL LOW
  WALLTIME 84000
  &TIMINGS
    THRESHOLD 1.00E-6
  &END TIMINGS
&END GLOBAL
